
Gurobi 9.1.0 (mac64, Matlab) logging started Fri Jun  9 22:42:57 2023


Gurobi 9.1.0 (mac64, Matlab) logging started Fri Jun  9 22:43:56 2023


Gurobi 9.1.0 (mac64, Matlab) logging started Fri Jun  9 22:56:41 2023


Gurobi 9.1.0 (mac64, Matlab) logging started Sat Jun 10 12:50:34 2023


Gurobi 9.1.0 (mac64, Matlab) logging started Sat Jun 10 12:53:50 2023


Gurobi 9.1.0 (mac64, Matlab) logging started Sat Jun 10 19:09:53 2023


Gurobi 9.1.0 (mac64, Matlab) logging started Sat Jun 10 19:09:53 2023


Gurobi 9.1.0 (mac64, Matlab) logging started Sat Jun 10 19:09:53 2023


Gurobi 9.1.0 (mac64, Matlab) logging started Sat Jun 10 19:09:54 2023


Gurobi 9.1.0 (mac64, Matlab) logging started Sat Jun 10 19:09:55 2023


Gurobi 9.1.0 (mac64, Matlab) logging started Sat Jun 10 19:09:56 2023


Gurobi 9.1.0 (mac64, Matlab) logging started Sat Jun 10 19:09:57 2023


Gurobi 9.1.0 (mac64, Matlab) logging started Sat Jun 10 19:09:58 2023


Gurobi 9.1.0 (mac64, Matlab) logging started Sat Jun 10 19:09:59 2023


Gurobi 9.1.0 (mac64, Matlab) logging started Sat Jun 10 19:21:53 2023


Gurobi 9.1.0 (mac64, Matlab) logging started Sat Jun 10 19:21:53 2023


Gurobi 9.1.0 (mac64, Matlab) logging started Sat Jun 10 19:21:54 2023


Gurobi 9.1.0 (mac64, Matlab) logging started Sat Jun 10 19:21:55 2023


Gurobi 9.1.0 (mac64, Matlab) logging started Sat Jun 10 19:21:57 2023


Gurobi 9.1.0 (mac64, Matlab) logging started Sat Jun 10 19:21:58 2023


Gurobi 9.1.0 (mac64, Matlab) logging started Sat Jun 10 19:22:00 2023


Gurobi 9.1.0 (mac64, Matlab) logging started Sat Jun 10 19:22:02 2023


Gurobi 9.1.0 (mac64, Matlab) logging started Sat Jun 10 19:22:04 2023


Gurobi 9.1.0 (mac64, Matlab) logging started Sat Jun 10 19:22:05 2023


Gurobi 9.1.0 (mac64, Matlab) logging started Sat Jun 10 19:22:08 2023


Gurobi 9.1.0 (mac64, Matlab) logging started Sat Jun 10 19:22:09 2023


Gurobi 9.1.0 (mac64, Matlab) logging started Sat Jun 10 19:22:11 2023


Gurobi 9.1.0 (mac64, Matlab) logging started Sat Jun 10 19:27:21 2023


Gurobi 9.1.0 (mac64, Matlab) logging started Sat Jun 10 19:27:21 2023


Gurobi 9.1.0 (mac64, Matlab) logging started Sat Jun 10 19:27:21 2023


Gurobi 9.1.0 (mac64, Matlab) logging started Sat Jun 10 19:27:23 2023


Gurobi 9.1.0 (mac64, Matlab) logging started Sat Jun 10 19:27:27 2023


Gurobi 9.1.0 (mac64, Matlab) logging started Sat Jun 10 19:27:29 2023


Gurobi 9.1.0 (mac64, Matlab) logging started Sat Jun 10 19:27:31 2023


Gurobi 9.1.0 (mac64, Matlab) logging started Sat Jun 10 19:27:33 2023


Gurobi 9.1.0 (mac64, Matlab) logging started Sat Jun 10 19:27:36 2023


Gurobi 9.1.0 (mac64, Matlab) logging started Sat Jun 10 19:27:38 2023


Gurobi 9.1.0 (mac64, Matlab) logging started Sat Jun 10 19:27:42 2023


Gurobi 9.1.0 (mac64, Matlab) logging started Sat Jun 10 19:27:44 2023


Gurobi 9.1.0 (mac64, Matlab) logging started Sat Jun 10 19:27:48 2023

